Version identifier: 22.1.0.0 | 2022-03-09 | 1a383f8ce
CPXPARAM_Read_DataCheck                          1
Tried aggregator 3 times.
MIP Presolve eliminated 2420 rows and 669 columns.
MIP Presolve modified 75 coefficients.
Aggregator did 1868 substitutions.
Reduced MIP has 647 rows, 1963 columns, and 4588 nonzeros.
Reduced MIP has 1953 binaries, 10 generals, 0 SOSs, and 0 indicators.
Presolve time = 0.01 sec. (13.74 ticks)
Probing fixed 20 vars, tightened 0 bounds.
Probing time = 0.00 sec. (2.37 ticks)
Tried aggregator 2 times.
Detecting symmetries...
MIP Presolve eliminated 22 rows and 27 columns.
Aggregator did 8 substitutions.
Reduced MIP has 617 rows, 1928 columns, and 4473 nonzeros.
Reduced MIP has 1918 binaries, 10 generals, 0 SOSs, and 0 indicators.
Presolve time = 0.01 sec. (4.73 ticks)
Probing time = 0.00 sec. (1.89 ticks)
Clique table members: 4135.
MIP emphasis: balance optimality and feasibility.
MIP search method: dynamic search.
Parallel mode: deterministic, using up to 8 threads.
Root relaxation solution time = 0.05 sec. (9.37 ticks)

        Nodes                                         Cuts/
   Node  Left     Objective  IInf  Best Integer    Best Bound    ItCnt     Gap

      0     0       10.4542   475                     10.4542      574         
      0     0       17.0000   274                    Cuts: 57     1082         
      0     0       17.0000   277                    Cuts: 18     1215         
*     0+    0                           18.0000       17.0000             5.56%
      0     0       17.0000   282       18.0000  ZeroHalf: 11     1371    5.56%

Repeating presolve.
Tried aggregator 3 times.
MIP Presolve eliminated 103 rows and 756 columns.
MIP Presolve modified 6 coefficients.
Aggregator did 107 substitutions.
Reduced MIP has 407 rows, 1065 columns, and 2579 nonzeros.
Reduced MIP has 1065 binaries, 0 generals, 0 SOSs, and 0 indicators.
Presolve time = 0.00 sec. (3.66 ticks)
Represolve time = 0.01 sec. (7.22 ticks)

Root node processing (before b&c):
  Real time             =    0.50 sec. (259.80 ticks)
Parallel b&c, 8 threads:
  Real time             =    0.00 sec. (0.00 ticks)
  Sync time (average)   =    0.00 sec.
  Wait time (average)   =    0.00 sec.
                          ------------
Total (root+branch&cut) =    0.50 sec. (259.80 ticks)
